; benchmark generated from python API
(set-info :status unknown)
(declare-sort router)
 (declare-fun __r_PE_10.id () (_ BitVec 16))
(declare-fun __r_PE_10.last_generated () (_ BitVec 16))
(declare-fun r_PE_10.id () (_ BitVec 16))
(declare-fun r_PE_10.last_generated () (_ BitVec 16))
(declare-fun __r_S_11.tally () (_ BitVec 16))
(declare-fun r_S_11.tally () (_ BitVec 16))
(declare-fun __r_W_10.id () (_ BitVec 16))
(declare-fun r_E_00.id () (_ BitVec 16))
(declare-fun r_W_10.id () (_ BitVec 16))
(declare-fun r_E_00.tally () (_ BitVec 16))
(declare-fun r_W_10.tally () (_ BitVec 16))
(declare-fun r_N_10.tally () (_ BitVec 16))
(declare-fun __flit_to_watch () (_ BitVec 16))
(declare-fun flit_to_watch () (_ BitVec 16))
(declare-fun r_S_11.id () (_ BitVec 16))
(declare-fun |0:router| () router)
(declare-fun r_E_00.has_flit () Bool)
(declare-fun __ts0_a_c () Bool)
(declare-fun arb_W_10.busy () Bool)
(declare-fun r_S_11.has_flit () Bool)
(declare-fun __ts0_a_b () Bool)
(declare-fun arb_N_10.busy () Bool)
(declare-fun r_W_10.has_flit () Bool)
(declare-fun __ts0_a_a_a () Bool)
(declare-fun arb_E_00.busy () Bool)
(declare-fun r_N_10.has_flit () Bool)
(declare-fun __ts0_a_a () Bool)
(declare-fun arb_S_11.busy () Bool)
(declare-fun __r_PE_10.has_flit () Bool)
(declare-fun __ts0_c () Bool)
(declare-fun __r_PE_10.ready () Bool)
(declare-fun __ts0__ts0__ts0_a_a () Bool)
(declare-fun __ts0__ts0_b () Bool)
(declare-fun r_PE_10.ready () Bool)
(declare-fun |r_PE_10.y_dest:0| () Bool)
(declare-fun |r_PE_10.x_dest:0| () Bool)
(declare-fun __ts0__ts0_a () Bool)
(declare-fun __arb_W_10.busy () Bool)
(declare-fun __arb_N_10.busy_a () Bool)
(declare-fun |__r_PE_10.assigned:0| () Bool)
(declare-fun |__r_PE_10.assigned:1| () Bool)
(declare-fun |__r_PE_10.assigned:2| () Bool)
(declare-fun |r_PE_10.assigned:0| () Bool)
(declare-fun |r_PE_10.assigned:1| () Bool)
(declare-fun |r_PE_10.assigned:2| () Bool)
(declare-fun arb_N_10.faulty () Bool)
(declare-fun arb_W_10.faulty () Bool)
(declare-fun r_PE_10.has_flit () Bool)
(declare-fun |r_S_11.assigned:0| () Bool)
(declare-fun |r_S_11.assigned:1| () Bool)
(declare-fun |r_S_11.assigned:2| () Bool)
(declare-fun |arb_E_00.get_from:1| () Bool)
(declare-fun |arb_E_00.get_from:0| () Bool)
(declare-fun __ts0_a () Bool)
(declare-fun __ts0__ts0_b_a () Bool)
(declare-fun __r_W_10.has_flit_a () Bool)
(declare-fun __ts0__ts0__ts0_a_a_a () Bool)
(declare-fun |__r_W_10.y_dest:0| () Bool)
(declare-fun |r_E_00.y_dest:0| () Bool)
(declare-fun |r_W_10.y_dest:0| () Bool)
(declare-fun |__r_W_10.x_dest:0| () Bool)
(declare-fun |r_E_00.x_dest:0| () Bool)
(declare-fun |r_W_10.x_dest:0| () Bool)
(declare-fun __r_E_00.has_flit_a () Bool)
(declare-fun |__r_S_11.assigned_a:0| () Bool)
(declare-fun |__r_S_11.assigned_a:1| () Bool)
(declare-fun |__r_S_11.assigned_a:2| () Bool)
(declare-fun |r_E_00.assigned:0| () Bool)
(declare-fun |r_E_00.assigned:1| () Bool)
(declare-fun |r_E_00.assigned:2| () Bool)
(declare-fun |r_W_10.assigned:0| () Bool)
(declare-fun |r_W_10.assigned:1| () Bool)
(declare-fun |r_W_10.assigned:2| () Bool)
(declare-fun |r_N_10.assigned:0| () Bool)
(declare-fun |r_N_10.assigned:1| () Bool)
(declare-fun |r_N_10.assigned:2| () Bool)
(declare-fun arb_E_00.faulty () Bool)
(declare-fun arb_S_11.faulty () Bool)
(declare-fun |__r_PE_10.y_dest:0| () Bool)
(declare-fun |__r_PE_10.x_dest:0| () Bool)
(declare-fun |__r_S_11.assigned:0| () Bool)
(declare-fun |__r_S_11.assigned:1| () Bool)
(declare-fun |__r_S_11.assigned:2| () Bool)
(declare-fun __r_S_11.has_flit () Bool)
(declare-fun __arb_S_11.busy () Bool)
(declare-fun |__r_E_00.assigned:0| () Bool)
(declare-fun |__r_E_00.assigned:1| () Bool)
(declare-fun |__r_E_00.assigned:2| () Bool)
(declare-fun __r_E_00.has_flit () Bool)
(declare-fun __arb_E_00.busy () Bool)
(declare-fun |__r_N_10.assigned:0| () Bool)
(declare-fun |__r_N_10.assigned:1| () Bool)
(declare-fun |__r_N_10.assigned:2| () Bool)
(declare-fun __r_N_10.has_flit () Bool)
(declare-fun |__r_W_10.assigned:0| () Bool)
(declare-fun |__r_W_10.assigned:1| () Bool)
(declare-fun |__r_W_10.assigned:2| () Bool)
(declare-fun __r_W_10.has_flit () Bool)
(declare-fun arb_PE_10.busy () Bool)
(declare-fun __arb_N_10.busy () Bool)
(assert
 (let (($x527 (ite __ts0_c (or __ts0__ts0_b (not __ts0__ts0__ts0_a_a)) __r_PE_10.ready)))
 (let (($x563 (or (and (= |r_PE_10.y_dest:0| true)) (and (and |r_PE_10.y_dest:0| true) (and true true)))))
 (let (($x438 (or (and (= |r_PE_10.x_dest:0| true)) (and (and |r_PE_10.x_dest:0| true) (and true true)))))
 (let (($x189 (= r_PE_10.id (ite __ts0_c (bvadd __r_PE_10.last_generated (_ bv1 16)) __r_PE_10.id))))
 (let (($x42 (= __ts0__ts0__ts0_a_a (ite __ts0__ts0_a __arb_N_10.busy_a __arb_W_10.busy))))
 (let (($x338 (ite __ts0__ts0_b true (ite __ts0__ts0__ts0_a_a |__r_PE_10.assigned:0| false))))
 (let (($x571 (ite __ts0__ts0_b false (ite __ts0__ts0__ts0_a_a |__r_PE_10.assigned:0| true))))
 (let (($x206 (and (ite __ts0_c (ite __ts0__ts0_a $x571 $x338) |__r_PE_10.assigned:0|) true)))
 (let (($x46 (ite __ts0__ts0_b false (ite __ts0__ts0__ts0_a_a |__r_PE_10.assigned:1| true))))
 (let (($x533 (ite __ts0__ts0_b true (ite __ts0__ts0__ts0_a_a |__r_PE_10.assigned:1| false))))
 (let (($x169 (and (ite __ts0_c (ite __ts0__ts0_a $x533 $x46) |__r_PE_10.assigned:1|) $x206)))
 (let (($x9 (ite __ts0__ts0_b false (ite __ts0__ts0__ts0_a_a |__r_PE_10.assigned:2| false))))
 (let (($x215 (and (ite __ts0_c (ite __ts0__ts0_a $x9 $x9) |__r_PE_10.assigned:2|) $x169)))
 (let (($x166 (and |r_PE_10.assigned:2| (and |r_PE_10.assigned:1| (and |r_PE_10.assigned:0| true)))))
 (let (($x558 (= |r_PE_10.assigned:0| (ite __ts0_c (ite __ts0__ts0_a $x571 $x338) |__r_PE_10.assigned:0|))))
 (let (($x506 (= |r_PE_10.assigned:1| (ite __ts0_c (ite __ts0__ts0_a $x533 $x46) |__r_PE_10.assigned:1|))))
 (let (($x540 (= |r_PE_10.assigned:2| (ite __ts0_c (ite __ts0__ts0_a $x9 $x9) |__r_PE_10.assigned:2|))))
 (let (($x69 (ite __ts0__ts0_a (and arb_N_10.faulty (not arb_W_10.faulty) (not __arb_W_10.busy)) (and arb_W_10.faulty (not arb_N_10.faulty) (not __arb_N_10.busy_a)))))
 (let (($x555 (ite __ts0__ts0_b __r_PE_10.has_flit (and (not __ts0__ts0__ts0_a_a) __r_PE_10.has_flit))))
 (let (($x467 (= r_PE_10.last_generated (ite __ts0_c r_PE_10.id __r_PE_10.last_generated))))
 (let (($x392 (and |r_S_11.assigned:2| (and |r_S_11.assigned:1| (and |r_S_11.assigned:0| true)))))
 (let (($x569 (and (= |r_S_11.assigned:2| false) (= |r_S_11.assigned:1| true) (= |r_S_11.assigned:0| true))))
 (let (($x163 (or (and (= |arb_E_00.get_from:1| false) (= |arb_E_00.get_from:0| false)) (and (and |arb_E_00.get_from:1| true) (and false true)))))
 (let ((?x471 (ite __ts0_a __r_W_10.id (ite __ts0__ts0_b_a r_E_00.id __r_W_10.id))))
 (let (($x83 (ite __ts0_a __r_W_10.has_flit_a (or __ts0__ts0_b_a __r_W_10.has_flit_a))))
 (let (($x265 (or (and (= |arb_E_00.get_from:1| true) (= |arb_E_00.get_from:0| false)) (and (and |arb_E_00.get_from:1| true) (and true true)))))
 (let (($x388 (or (and (= |arb_E_00.get_from:1| false) (= |arb_E_00.get_from:0| true)) (and (and |arb_E_00.get_from:1| true) (and false true)))))
 (let (($x210 (ite __ts0_a |__r_W_10.y_dest:0| (ite __ts0__ts0_b_a |r_E_00.y_dest:0| |__r_W_10.y_dest:0|))))
 (let (($x393 (or (and (= |r_W_10.y_dest:0| $x210)) (and (and |r_W_10.y_dest:0| true) (and $x210 true)))))
 (let (($x227 (ite __ts0_a |__r_W_10.x_dest:0| (ite __ts0__ts0_b_a |r_E_00.x_dest:0| |__r_W_10.x_dest:0|))))
 (let (($x286 (or (and (= |r_W_10.x_dest:0| $x227)) (and (and |r_W_10.x_dest:0| true) (and $x227 true)))))
 (let (($x502 (ite __ts0_a __r_E_00.has_flit_a (and (not __ts0__ts0_b_a) __r_E_00.has_flit_a))))
 (let (($x257 (and false (and false (and false true)))))
 (let (($x541 (and |__r_S_11.assigned_a:2| (and |__r_S_11.assigned_a:1| (and |__r_S_11.assigned_a:0| true)))))
 (let (($x178 (and (= |__r_S_11.assigned_a:2| false) (= |__r_S_11.assigned_a:1| false) (= |__r_S_11.assigned_a:0| false))))
 (let (($x315 (and |r_E_00.assigned:2| (and |r_E_00.assigned:1| (and |r_E_00.assigned:0| true)))))
 (let (($x68 (and (= |r_E_00.assigned:2| false) (= |r_E_00.assigned:1| false) (= |r_E_00.assigned:0| false))))
 (let (($x453 (and |r_W_10.assigned:2| (and |r_W_10.assigned:1| (and |r_W_10.assigned:0| true)))))
 (let (($x334 (and (= |r_W_10.assigned:2| false) (= |r_W_10.assigned:1| false) (= |r_W_10.assigned:0| false))))
 (let (($x211 (and |r_N_10.assigned:2| (and |r_N_10.assigned:1| (and |r_N_10.assigned:0| true)))))
 (let (($x130 (and (= |r_N_10.assigned:2| false) (= |r_N_10.assigned:1| false) (= |r_N_10.assigned:0| false))))
 (let (($x56 (and (= |r_W_10.assigned:2| true) (= |r_W_10.assigned:1| true) (= |r_W_10.assigned:0| false))))
 (let (($x349 (and (= |r_W_10.assigned:2| false) (= |r_W_10.assigned:1| false) (= |r_W_10.assigned:0| true))))
 (let (($x249 (and r_W_10.has_flit (or $x349 (and $x453 (and false (and false (and true true))))) r_S_11.has_flit (or $x56 (and $x453 (and true (and true (and false true))))))))
 (let (($x501 (or (and (= |r_PE_10.y_dest:0| |__r_PE_10.y_dest:0|)) (and (and |r_PE_10.y_dest:0| true) (and |__r_PE_10.y_dest:0| true)))))
 (let (($x102 (or (and (= |r_PE_10.x_dest:0| |__r_PE_10.x_dest:0|)) (and (and |r_PE_10.x_dest:0| true) (and |__r_PE_10.x_dest:0| true)))))
 (let (($x151 (or __ts0__ts0_a (or __ts0__ts0_b (or __ts0__ts0__ts0_a_a (not __arb_N_10.busy_a))))))
 (let (($x150 (not __ts0_c)))
 (let (($x311 (or __ts0__ts0_a (or __ts0__ts0_b (or __ts0__ts0__ts0_a_a (not arb_W_10.faulty))))))
 (let (($x224 (or (not __ts0__ts0_a) (or __ts0__ts0_b (or __ts0__ts0__ts0_a_a (not __arb_N_10.busy_a))))))
 (let (($x417 (or (not __ts0__ts0_a) (or __ts0__ts0_b (or __ts0__ts0__ts0_a_a (not arb_N_10.faulty))))))
 (let (($x148 (and |__r_S_11.assigned:2| (and |__r_S_11.assigned:1| (and |__r_S_11.assigned:0| true)))))
 (let (($x816 (and (= |__r_S_11.assigned:2| false) (= |__r_S_11.assigned:1| true) (= |__r_S_11.assigned:0| true))))
 (let (($x245 (and |__r_E_00.assigned:2| (and |__r_E_00.assigned:1| (and |__r_E_00.assigned:0| true)))))
 (let (($x373 (and (= |__r_E_00.assigned:2| true) (= |__r_E_00.assigned:1| false) (= |__r_E_00.assigned:0| false))))
 (let (($x421 (and |__r_N_10.assigned:2| (and |__r_N_10.assigned:1| (and |__r_N_10.assigned:0| true)))))
 (let (($x94 (and (= |__r_N_10.assigned:2| true) (= |__r_N_10.assigned:1| true) (= |__r_N_10.assigned:0| true))))
 (let (($x372 (and __r_N_10.has_flit (or $x94 (and $x421 (and true (and true (and true true))))))))
 (let (($x347 (and |__r_W_10.assigned:2| (and |__r_W_10.assigned:1| (and |__r_W_10.assigned:0| true)))))
 (let (($x50 (and (= |__r_W_10.assigned:2| true) (= |__r_W_10.assigned:1| true) (= |__r_W_10.assigned:0| true))))
 (let (($x277 (and __r_W_10.has_flit (or $x50 (and $x347 (and true (and true (and true true))))))))
 (let (($x250 (and (= |__r_N_10.assigned:2| false) (= |__r_N_10.assigned:1| true) (= |__r_N_10.assigned:0| false))))
 (let (($x127 (and __r_N_10.has_flit (or $x250 (and $x421 (and false (and true (and false true))))))))
 (let (($x387 (and (= |__r_W_10.assigned:2| false) (= |__r_W_10.assigned:1| true) (= |__r_W_10.assigned:0| false))))
 (let (($x78 (and __r_W_10.has_flit (or $x387 (and $x347 (and false (and true (and false true))))))))
 (let (($x275 (and false (and true (and false true)))))
 (let (($x297 (and |__r_PE_10.assigned:2| (and |__r_PE_10.assigned:1| (and |__r_PE_10.assigned:0| true)))))
 (let (($x321 (and (= |__r_PE_10.assigned:2| false) (= |__r_PE_10.assigned:1| true) (= |__r_PE_10.assigned:0| false))))
 (let (($x146 (and (= |__r_W_10.assigned:2| false) (= |__r_W_10.assigned:1| false) (= |__r_W_10.assigned:0| false))))
 (let (($x463 (forall ((|X:router| router) )(= |X:router| |0:router|))
 ))
 (and $x463 (or $x816 (and $x148 (and false (and true (and true true))))) (or $x94 (and $x421 (and true (and true (and true true))))) (or $x321 (and $x297 $x275)) (= __flit_to_watch (_ bv65535 16)) (= __r_S_11.has_flit and) (= __arb_N_10.busy or) (= __r_W_10.has_flit or) (= __r_E_00.has_flit and) (or $x146 (and $x347 $x257)) (= __r_N_10.has_flit and) (or $x373 (and $x245 (and true (and false (and false true))))) (= __arb_E_00.busy or) (= arb_PE_10.busy or) (= __arb_S_11.busy or) (= __arb_W_10.busy or) (bvult (_ bv1 16) (_ bv65535 16)) (bvult (_ bv0 16) (_ bv1 16)) (bvult (_ bv0 16) (_ bv65535 16)) (not (bvult (_ bv1 16) (_ bv1 16))) (not (bvult (_ bv1 16) (_ bv0 16))) (not (bvult (_ bv0 16) (_ bv0 16))) (not (bvult (_ bv65535 16) (_ bv1 16))) (not (bvult (_ bv65535 16) (_ bv0 16))) (not (bvult (_ bv65535 16) (_ bv65535 16))) (= (bvadd (_ bv1 16) (_ bv0 16)) (_ bv1 16)) (= (bvadd (_ bv1 16) (_ bv65535 16)) (_ bv0 16)) (= (bvadd (_ bv0 16) (_ bv1 16)) (_ bv1 16)) (= (bvadd (_ bv0 16) (_ bv0 16)) (_ bv0 16)) (= (bvadd (_ bv0 16) (_ bv65535 16)) (_ bv65535 16)) (= (bvadd (_ bv65535 16) (_ bv1 16)) (_ bv0 16)) (= (bvadd (_ bv65535 16) (_ bv0 16)) (_ bv65535 16)) (not __arb_N_10.busy) (or (and __r_PE_10.has_flit (or $x321 (and $x297 $x275))) $x78 $x127) (not __arb_W_10.busy) (or (and __r_PE_10.has_flit (or $x321 (and $x297 $x275))) $x78 $x127) (not arb_PE_10.busy) (or $x277 $x372) (not __arb_E_00.busy) __r_E_00.has_flit (or $x373 (and $x245 (and true (and false (and false true))))) (not __arb_S_11.busy) __r_S_11.has_flit (or $x816 (and $x148 (and false (and true (and true true))))) (not arb_E_00.faulty) r_S_11.has_flit (= r_S_11.id flit_to_watch) (= r_S_11.tally (bvadd (bvsub r_S_11.tally (_ bv1 16)) (_ bv1 16))) r_S_11.has_flit (or $x150 $x417) (or $x150 $x224) (or $x150 $x311) (or $x150 $x151) (or __ts0_c $x102) (or __ts0_c $x501) (not $x249) (= arb_N_10.faulty or) (= arb_W_10.faulty or) (= arb_S_11.faulty or) (= arb_E_00.faulty and) (= flit_to_watch (bvadd __flit_to_watch (_ bv1 16))) (= __r_PE_10.ready or) (= __r_PE_10.last_generated (_ bv0 16)) (= r_N_10.has_flit or) (= r_N_10.tally (_ bv0 16)) (or $x130 (and $x211 $x257)) (= __r_W_10.has_flit_a or) (= r_W_10.tally (_ bv0 16)) (or $x334 (and $x453 $x257)) (= __r_E_00.has_flit_a or) (= r_E_00.tally (_ bv0 16)) (or $x68 (and $x315 $x257)) (= r_S_11.has_flit or) (= __r_S_11.tally (_ bv0 16)) (or $x178 (and $x541 $x257)) $x388 (= r_E_00.has_flit $x502) $x286 $x393 (= __ts0__ts0_b_a $x388) (= __ts0__ts0__ts0_a_a_a $x265) (= r_W_10.has_flit $x83) (= r_W_10.id ?x471) (= __ts0_a $x163) (= r_S_11.tally (bvadd __r_S_11.tally (_ bv1 16))) (= __arb_N_10.busy_a and) (or $x569 (and $x392 (and false (and true (and true true))))) $x467 (= r_PE_10.has_flit (ite __ts0_c $x555 __r_PE_10.has_flit)) (= __ts0__ts0_b $x69) (or (and $x540 $x506 $x558) (and $x166 $x215)) $x42 $x189 (= __ts0__ts0_a (and $x438 $x563)) (= r_PE_10.ready $x527) (= __ts0_c __r_PE_10.has_flit) (= arb_S_11.busy __ts0_a_a) (= __ts0_a_a r_N_10.has_flit) (= arb_E_00.busy __ts0_a_a_a) (= __ts0_a_a_a r_W_10.has_flit) (= arb_N_10.busy __ts0_a_b) (= __ts0_a_b r_S_11.has_flit) (= arb_W_10.busy __ts0_a_c) (= __ts0_a_c r_E_00.has_flit)))))))))))))))))))))))))))))))))))))))))))))))))))))))))))))))))))))))))
(assert
 (and (= |0:router| |0:router|) (= |0:router| |0:router|) (= (_ bv0 16) (_ bv0 16)) (= (_ bv0 16) (_ bv0 16))))
(check-sat)
